fuel_planner/utils/lkh_tsp_solver/resource/single.tsp
NAME : single
TYPE : ATSP
DIMENSION : 10
EDGE_WEIGHT_TYPE : EXPLICIT
EDGE_WEIGHT_FORMAT : FULL_MATRIX
EDGE_WEIGHT_SECTION
0 677 792 643 656 489 349 162 154 297 
0 0 233 145 192 456 473 428 510 349 
0 233 0 220 256 539 645 570 663 490 
0 145 220 0 103 405 455 379 470 298 
0 192 256 103 0 360 424 379 459 274 
0 456 539 405 360 0 48 138 228 285 
0 473 645 455 424 48 0 89 179 265 
0 428 570 379 379 138 89 0 168 253 
0 510 663 470 459 228 179 168 0 172 
0 349 490 298 274 285 265 253 172 0 
