fuel_planner/utils/lkh_tsp_solver/resource/single.txt
NAME : single.1031.tour
COMMENT : Length = 1031
COMMENT : Found by LKH [Keld Helsgaun] Sun Apr  3 23:23:58 2022
TYPE : TOUR
DIMENSION : 6
TOUR_SECTION
1
3
6
2
5
4
-1
EOF
